proyfinal/src/viki/013/experimentInOfficeAgust.take6.output/ad015548-d7fe-498f-aafc-ca0a534a3051.als.out
Reading from standard input... Use '--help' for help.
============================[ Problem Statistics ]=============================
|                                                                             |
|  Number of variables:         87638                                         |
|  Number of clauses:          161767                                         |
|  Parse time:                   0.04 s                                       |
|                                                                             |
============================[ Search Statistics ]==============================
| Conflicts |          ORIGINAL         |          LEARNT          | Progress |
|           |    Vars  Clauses Literals |    Limit  Clauses Lit/Cl |          |
===============================================================================
|       100 |   62128   104472   260565 |    38306      100     27 | 29.108 % |
|       250 |   62128   104472   260565 |    42137      250     44 | 29.108 % |
|       475 |   62128   104472   260565 |    46350      475     40 | 29.108 % |
|       812 |   62128   104472   260565 |    50985      812     47 | 29.108 % |
|      1318 |   62110   104398   260394 |    56084     1317     65 | 29.129 % |
|      2077 |   62110   104398   260394 |    61692     2076     70 | 29.129 % |
|      3216 |   62092   104324   260223 |    67862     3214     78 | 29.149 % |
|      4924 |   62017   103984   259434 |    74648     4910     87 | 29.235 % |
|      7486 |   61983   103844   259110 |    82113     7470     89 | 29.274 % |
|     11330 |   61943   103766   258923 |    90324    10779     92 | 29.320 % |
|     17096 |   52710    76055   190885 |    99356    15331    104 | 39.855 % |
===============================================================================
restarts              : 63
conflicts             : 18341          (7064 /sec)
decisions             : 62905          (0.00 % random) (24228 /sec)
propagations          : 23017685       (8865234 /sec)
conflict literals     : 1845131        (49.03 % deleted)
Memory used           : 28.33 MB
CPU time              : 2.5964 s

UNSATISFIABLE
